1414104
15 21 19591
21 23 92634
23 3 112203
3 7 5029
7 27 7370
27 8 98591
8 12 61690
12 10 116497
10 17 52694
17 24 276644
24 1 54636
1 20 190821
20 19 59143
19 22 8375
22 11 10310
11 26 13666
26 14 12452
14 16 22658
16 29 55904
29 28 52270
28 30 11025
30 6 7944
6 2 7286
2 4 14349
4 18 7922
18 5 5422
5 13 6994
13 25 1644
25 9 14389
9 15 13951
